\* Pricing_problem *\
Minimize
OBJ: __dummy
Subject To
LESS_CAP_0: M_0,0 + M_1,0 + M_2,0 + M_3,0 + M_4,0 + M_5,0 + M_6,0 + M_7,0
 + M_8,0 + M_9,0 <= 3
LESS_CAP_1: M_0,1 + M_1,1 + M_2,1 + M_3,1 + M_4,1 + M_5,1 + M_6,1 + M_7,1
 + M_8,1 + M_9,1 <= 4
LESS_CAP_2: M_0,2 + M_1,2 + M_2,2 + M_3,2 + M_4,2 + M_5,2 + M_6,2 + M_7,2
 + M_8,2 + M_9,2 <= 3
LESS_CAP_3: M_0,3 + M_1,3 + M_2,3 + M_3,3 + M_4,3 + M_5,3 + M_6,3 + M_7,3
 + M_8,3 + M_9,3 <= 1
LESS_ONE_0: M_0,0 + M_0,1 + M_0,2 + M_0,3 <= 1
LESS_ONE_1: M_1,0 + M_1,1 + M_1,2 + M_1,3 <= 1
LESS_ONE_2: M_2,0 + M_2,1 + M_2,2 + M_2,3 <= 1
LESS_ONE_3: M_3,0 + M_3,1 + M_3,2 + M_3,3 <= 1
LESS_ONE_4: M_4,0 + M_4,1 + M_4,2 + M_4,3 <= 1
LESS_ONE_5: M_5,0 + M_5,1 + M_5,2 + M_5,3 <= 1
LESS_ONE_6: M_6,0 + M_6,1 + M_6,2 + M_6,3 <= 1
LESS_ONE_7: M_7,0 + M_7,1 + M_7,2 + M_7,3 <= 1
LESS_ONE_8: M_8,0 + M_8,1 + M_8,2 + M_8,3 <= 1
LESS_ONE_9: M_9,0 + M_9,1 + M_9,2 + M_9,3 <= 1
_dummy: __dummy = 0
STAB_0_0_0: __dummy >= 3
STAB_0_0_1: __dummy >= 4
STAB_0_0_2: __dummy >= 3
STAB_0_0_3: __dummy >= 1
STAB_0_1_0: __dummy >= 3
STAB_0_1_1: __dummy >= 4
STAB_0_1_2: __dummy >= 3
STAB_0_1_3: __dummy >= 1
STAB_0_2_0: __dummy >= 3
STAB_0_2_1: __dummy >= 4
STAB_0_2_2: __dummy >= 3
STAB_0_2_3: __dummy >= 1
STAB_0_3_0: __dummy >= 3
STAB_0_3_1: __dummy >= 4
STAB_0_3_2: __dummy >= 3
STAB_0_3_3: __dummy >= 1
STAB_0_4_0: __dummy >= 3
STAB_0_4_1: __dummy >= 4
STAB_0_4_2: __dummy >= 3
STAB_0_4_3: __dummy >= 1
STAB_0_5_0: __dummy >= 3
STAB_0_5_1: __dummy >= 4
STAB_0_5_2: __dummy >= 3
STAB_0_5_3: __dummy >= 1
STAB_0_6_0: __dummy >= 3
STAB_0_6_1: __dummy >= 4
STAB_0_6_2: __dummy >= 3
STAB_0_6_3: __dummy >= 1
STAB_0_7_0: __dummy >= 3
STAB_0_7_1: __dummy >= 4
STAB_0_7_2: __dummy >= 3
STAB_0_7_3: __dummy >= 1
STAB_0_8_0: __dummy >= 3
STAB_0_8_1: __dummy >= 4
STAB_0_8_2: __dummy >= 3
STAB_0_8_3: __dummy >= 1
STAB_0_9_0: __dummy >= 3
STAB_0_9_1: __dummy >= 4
STAB_0_9_2: __dummy >= 3
STAB_0_9_3: __dummy >= 1
STAB_1_0_0: __dummy >= 3
STAB_1_0_1: __dummy >= 4
STAB_1_0_2: __dummy >= 3
STAB_1_0_3: __dummy >= 1
STAB_1_1_0: __dummy >= 3
STAB_1_1_1: __dummy >= 4
STAB_1_1_2: __dummy >= 3
STAB_1_1_3: __dummy >= 1
STAB_1_2_0: __dummy >= 3
STAB_1_2_1: __dummy >= 4
STAB_1_2_2: __dummy >= 3
STAB_1_2_3: __dummy >= 1
STAB_1_3_0: __dummy >= 3
STAB_1_3_1: __dummy >= 4
STAB_1_3_2: __dummy >= 3
STAB_1_3_3: __dummy >= 1
STAB_1_4_0: __dummy >= 3
STAB_1_4_1: __dummy >= 4
STAB_1_4_2: __dummy >= 3
STAB_1_4_3: __dummy >= 1
STAB_1_5_0: __dummy >= 3
STAB_1_5_1: __dummy >= 4
STAB_1_5_2: __dummy >= 3
STAB_1_5_3: __dummy >= 1
STAB_1_6_0: __dummy >= 3
STAB_1_6_1: __dummy >= 4
STAB_1_6_2: __dummy >= 3
STAB_1_6_3: __dummy >= 1
STAB_1_7_0: __dummy >= 3
STAB_1_7_1: __dummy >= 4
STAB_1_7_2: __dummy >= 3
STAB_1_7_3: __dummy >= 1
STAB_1_8_0: __dummy >= 3
STAB_1_8_1: __dummy >= 4
STAB_1_8_2: __dummy >= 3
STAB_1_8_3: __dummy >= 1
STAB_1_9_0: __dummy >= 3
STAB_1_9_1: __dummy >= 4
STAB_1_9_2: __dummy >= 3
STAB_1_9_3: __dummy >= 1
STAB_2_0_0: __dummy >= 3
STAB_2_0_1: __dummy >= 4
STAB_2_0_2: __dummy >= 3
STAB_2_0_3: __dummy >= 1
STAB_2_1_0: __dummy >= 3
STAB_2_1_1: __dummy >= 4
STAB_2_1_2: __dummy >= 3
STAB_2_1_3: __dummy >= 1
STAB_2_2_0: __dummy >= 3
STAB_2_2_1: __dummy >= 4
STAB_2_2_2: __dummy >= 3
STAB_2_2_3: __dummy >= 1
STAB_2_3_0: __dummy >= 3
STAB_2_3_1: __dummy >= 4
STAB_2_3_2: __dummy >= 3
STAB_2_3_3: __dummy >= 1
STAB_2_4_0: __dummy >= 3
STAB_2_4_1: __dummy >= 4
STAB_2_4_2: __dummy >= 3
STAB_2_4_3: __dummy >= 1
STAB_2_5_0: __dummy >= 3
STAB_2_5_1: __dummy >= 4
STAB_2_5_2: __dummy >= 3
STAB_2_5_3: __dummy >= 1
STAB_2_6_0: __dummy >= 3
STAB_2_6_1: __dummy >= 4
STAB_2_6_2: __dummy >= 3
STAB_2_6_3: __dummy >= 1
STAB_2_7_0: __dummy >= 3
STAB_2_7_1: __dummy >= 4
STAB_2_7_2: __dummy >= 3
STAB_2_7_3: __dummy >= 1
STAB_2_8_0: __dummy >= 3
STAB_2_8_1: __dummy >= 4
STAB_2_8_2: __dummy >= 3
STAB_2_8_3: __dummy >= 1
STAB_2_9_0: __dummy >= 3
STAB_2_9_1: __dummy >= 4
STAB_2_9_2: __dummy >= 3
STAB_2_9_3: __dummy >= 1
STAB_3_0_0: __dummy >= 3
STAB_3_0_1: __dummy >= 4
STAB_3_0_2: __dummy >= 3
STAB_3_0_3: __dummy >= 1
STAB_3_1_0: __dummy >= 3
STAB_3_1_1: __dummy >= 4
STAB_3_1_2: __dummy >= 3
STAB_3_1_3: __dummy >= 1
STAB_3_2_0: __dummy >= 3
STAB_3_2_1: __dummy >= 4
STAB_3_2_2: __dummy >= 3
STAB_3_2_3: __dummy >= 1
STAB_3_3_0: __dummy >= 3
STAB_3_3_1: __dummy >= 4
STAB_3_3_2: __dummy >= 3
STAB_3_3_3: __dummy >= 1
STAB_3_4_0: __dummy >= 3
STAB_3_4_1: __dummy >= 4
STAB_3_4_2: __dummy >= 3
STAB_3_4_3: __dummy >= 1
STAB_3_5_0: __dummy >= 3
STAB_3_5_1: __dummy >= 4
STAB_3_5_2: __dummy >= 3
STAB_3_5_3: __dummy >= 1
STAB_3_6_0: __dummy >= 3
STAB_3_6_1: __dummy >= 4
STAB_3_6_2: __dummy >= 3
STAB_3_6_3: __dummy >= 1
STAB_3_7_0: __dummy >= 3
STAB_3_7_1: __dummy >= 4
STAB_3_7_2: __dummy >= 3
STAB_3_7_3: __dummy >= 1
STAB_3_8_0: __dummy >= 3
STAB_3_8_1: __dummy >= 4
STAB_3_8_2: __dummy >= 3
STAB_3_8_3: __dummy >= 1
STAB_3_9_0: __dummy >= 3
STAB_3_9_1: __dummy >= 4
STAB_3_9_2: __dummy >= 3
STAB_3_9_3: __dummy >= 1
Bounds
 __dummy = 0
Binaries
M_0,0
M_0,1
M_0,2
M_0,3
M_1,0
M_1,1
M_1,2
M_1,3
M_2,0
M_2,1
M_2,2
M_2,3
M_3,0
M_3,1
M_3,2
M_3,3
M_4,0
M_4,1
M_4,2
M_4,3
M_5,0
M_5,1
M_5,2
M_5,3
M_6,0
M_6,1
M_6,2
M_6,3
M_7,0
M_7,1
M_7,2
M_7,3
M_8,0
M_8,1
M_8,2
M_8,3
M_9,0
M_9,1
M_9,2
M_9,3
End
